NAME : rnd76_20.tsp
TYPE : TSP
DIMENSION : 20
EDGE_WEIGHT_TYPE : EUC_2D
NODE_COORD_SECTION
0 417 612
1 897 43
2 945 502
3 200 35
4 930 517
5 698 970
6 95 567
7 19 775
8 779 470
9 19 837
10 702 812
11 891 553
12 372 552
13 142 824
14 68 15
15 177 197
16 284 288
17 543 76
18 617 830
19 679 841
